50
    51    42    82     5    79     1    70    66    24    28    17    13    73    93    31    96    79    54    33     8    60    61    62    82   100    56    72    92    47    70    34    51    17    25    31    15    91    32    66    78    14    96    54    77    98    11    28    89    21    60
     2     1     7     9     5     1     5     5     5     6     1     2    10     6     9     6     9     5    10    10     1     7     9     3     3     3     5     6     5     9     1     1     2     2     6     2     4     1     5     6     6     8     4     3     5     7     7     2     8     3
   107     0     9  1107     0     0     0   706   208  1434   781   517     0  1617   632   130     0   789  1193     0  1376  1408     0     0   986   569     0  1656   464   144   971     0  1795     0   854  1260     0  1725     0     0   139  1267   112     0  1338     0   176     0     0  1253
